p cnf 703 1856
-5 -6 0 
-93 94 95 0 
-94 74 0 
-94 75 0 
-95 75 0 
-95 79 0 
-96 74 0 
-96 79 0 
-97 -98 0 
-98 -99 -105 0 
-98 99 105 0 
-99 -100 -101 0 
-99 100 101 0 
-101 -102 -104 0 
-101 102 104 0 
-102 -103 0 
-104 89 0 
-104 91 0 
-105 106 109 0 
-106 107 108 0 
-107 87 0 
-107 88 0 
-108 88 0 
-108 92 0 
-109 87 0 
-109 92 0 
-110 -111 0 
-111 -112 -118 0 
-111 112 118 0 
-112 -113 -114 0 
-112 113 114 0 
-114 -115 -117 0 
-114 115 117 0 
-115 -116 0 
-117 102 0 
-117 104 0 
-118 119 122 0 
-119 120 121 0 
-120 100 0 
-120 101 0 
-121 101 0 
-121 105 0 
-122 100 0 
-122 105 0 
-7 16 0 
7 593 0 
-123 -124 0 
-124 -125 -131 0 
-124 125 131 0 
-125 -126 -127 0 
-125 126 127 0 
-127 -128 -130 0 
-127 128 130 0 
-128 -129 0 
-130 115 0 
-130 117 0 
-131 132 135 0 
-132 133 134 0 
-7 -8 0 
-133 113 0 
-133 114 0 
-134 114 0 
-134 118 0 
-135 113 0 
-135 118 0 
-136 -137 0 
-137 -138 -144 0 
-137 138 144 0 
-138 -139 -140 0 
-138 139 140 0 
-140 -141 -143 0 
-140 141 143 0 
-141 -142 0 
-8 9 0 
-143 128 0 
-143 130 0 
-144 145 148 0 
-145 146 147 0 
-146 126 0 
-146 127 0 
-147 127 0 
-147 131 0 
-148 126 0 
-148 131 0 
-149 -150 0 
-150 -151 -157 0 
-150 151 157 0 
-151 -152 -153 0 
-151 152 153 0 
-9 -10 -13 0 
-9 10 13 0 
-153 -154 -156 0 
-153 154 156 0 
-154 -155 0 
-156 141 0 
-156 143 0 
-157 158 161 0 
-158 159 160 0 
-159 139 0 
-159 140 0 
-160 140 0 
-160 144 0 
-161 139 0 
-161 144 0 
-162 -163 0 
-10 -11 0 
-163 -164 -170 0 
-163 164 170 0 
-164 -165 -166 0 
-164 165 166 0 
-166 -167 -169 0 
-166 167 169 0 
-167 -168 0 
-169 154 0 
-169 156 0 
-170 171 174 0 
-171 172 173 0 
-172 152 0 
-172 153 0 
-11 -12 0 
-173 153 0 
-173 157 0 
-174 152 0 
-174 157 0 
-175 -176 0 
-176 -177 -183 0 
-176 177 183 0 
-177 -178 -179 0 
-177 178 179 0 
-179 -180 -182 0 
-179 180 182 0 
-180 -181 0 
-182 167 0 
-182 169 0 
-183 184 187 0 
-184 185 186 0 
-185 165 0 
-185 166 0 
-186 166 0 
-186 170 0 
-187 165 0 
-187 170 0 
-188 -189 0 
-189 -190 -196 0 
-189 190 196 0 
-190 -191 -192 0 
-190 191 192 0 
-192 -193 -195 0 
-192 193 195 0 
-13 -14 0 
-193 -194 0 
-195 180 0 
-195 182 0 
-196 197 200 0 
-197 198 199 0 
-198 178 0 
-198 179 0 
-199 179 0 
-199 183 0 
-200 178 0 
-200 183 0 
-201 -202 0 
-202 -203 -209 0 
-202 203 209 0 
-14 -15 0 
-203 -204 -205 0 
-203 204 205 0 
-205 -206 -208 0 
-205 206 208 0 
-206 -207 0 
-208 193 0 
-208 195 0 
-209 210 213 0 
-210 211 212 0 
-211 191 0 
-211 192 0 
-212 192 0 
-212 196 0 
-213 191 0 
-213 196 0 
-214 -215 0 
-215 -216 -222 0 
-215 216 222 0 
-216 -217 -218 0 
-216 217 218 0 
-218 -219 -221 0 
-218 219 221 0 
-219 -220 0 
-221 206 0 
-221 208 0 
-222 223 226 0 
-16 -17 26 0 
-16 17 581 0 
-223 224 225 0 
-224 204 0 
-224 205 0 
-225 205 0 
-225 209 0 
-226 204 0 
-226 209 0 
-227 -228 0 
-228 -229 -235 0 
-228 229 235 0 
-229 -230 -231 0 
-229 230 231 0 
-231 -232 -234 0 
-231 232 234 0 
-232 -233 0 
-17 -18 0 
-234 219 0 
-234 221 0 
-235 236 239 0 
-236 237 238 0 
-237 217 0 
-237 218 0 
-238 218 0 
-238 222 0 
-239 217 0 
-239 222 0 
-240 -241 247 0 
-240 241 0 
-241 -242 0 
-242 243 0 
-18 19 0 
-243 -244 -4 0 
-243 244 4 0 
-244 -245 0 
-245 -246 0 
-247 -248 257 0 
-247 248 0 
-248 -249 0 
-249 250 0 
-250 -251 -254 0 
-250 251 254 0 
-251 -252 0 
-252 -253 0 
-19 -20 -23 0 
-19 20 23 0 
-254 -255 0 
-255 -256 0 
-257 -258 264 0 
-257 258 478 0 
-258 -259 0 
-259 260 0 
-260 -13 -261 0 
-260 13 261 0 
-261 -262 0 
-262 -263 0 
-20 -21 0 
-264 -265 271 0 
-264 265 473 0 
-265 -266 0 
-266 267 0 
-267 -23 -268 0 
-267 23 268 0 
-268 -269 0 
-269 -270 0 
-271 -272 469 0 
-271 272 0 
-272 273 0 
-272 457 0 
-21 -22 0 
-273 274 0 
-273 445 0 
-274 275 0 
-274 433 0 
-275 276 0 
-275 421 0 
-276 277 0 
-276 409 0 
-277 278 0 
-277 397 0 
-278 279 0 
-278 385 0 
-279 280 0 
-279 373 0 
-280 281 0 
-280 361 0 
-281 282 0 
-281 349 0 
-282 283 0 
-282 337 0 
-283 284 0 
-283 325 0 
-284 285 0 
-284 313 0 
-285 286 0 
-285 301 0 
-286 287 0 
-286 293 0 
-287 -288 0 
-288 289 0 
-289 -48 -290 0 
-289 48 290 0 
-290 -291 0 
-291 -292 0 
-23 -24 0 
-293 -294 0 
-294 -295 -300 0 
-294 295 300 0 
-295 -55 -296 0 
-295 55 296 0 
-296 -297 -299 0 
-296 297 299 0 
-297 -298 0 
-299 291 0 
-300 290 0 
-300 48 0 
-301 -302 0 
-302 -303 -308 0 
-302 303 308 0 
-24 -25 0 
-303 -64 -304 0 
-303 64 304 0 
-304 -305 -307 0 
-304 305 307 0 
-305 -306 0 
-307 297 0 
-307 299 0 
-308 309 312 0 
-309 310 311 0 
-310 296 0 
-310 55 0 
-311 296 0 
-311 300 0 
-312 300 0 
-312 55 0 
-313 -314 0 
-314 -315 -320 0 
-314 315 320 0 
-315 -77 -316 0 
-315 77 316 0 
-316 -317 -319 0 
-316 317 319 0 
-317 -318 0 
-319 305 0 
-319 307 0 
-320 321 324 0 
-321 322 323 0 
-322 304 0 
-322 64 0 
-26 -27 240 0 
-26 27 0 
-323 304 0 
-323 308 0 
-324 308 0 
-324 64 0 
-325 -326 0 
-326 -327 -332 0 
-326 327 332 0 
-327 -90 -328 0 
-327 90 328 0 
-328 -329 -331 0 
-328 329 331 0 
-329 -330 0 
-331 317 0 
-331 319 0 
-332 333 336 0 
-27 227 0 
-27 28 0 
-333 334 335 0 
-334 316 0 
-334 77 0 
-335 316 0 
-335 320 0 
-336 320 0 
-336 77 0 
-337 -338 0 
-338 -339 -344 0 
-338 339 344 0 
-339 -103 -340 0 
-339 103 340 0 
-340 -341 -343 0 
-340 341 343 0 
-341 -342 0 
-28 214 0 
-28 29 0 
-343 329 0 
-343 331 0 
-344 345 348 0 
-345 346 347 0 
-346 328 0 
-346 90 0 
-347 328 0 
-347 332 0 
-348 332 0 
-348 90 0 
-349 -350 0 
-350 -351 -356 0 
-350 351 356 0 
-351 -116 -352 0 
-351 116 352 0 
-352 -353 -355 0 
-352 353 355 0 
-29 201 0 
-29 30 0 
-353 -354 0 
-355 341 0 
-355 343 0 
-356 357 360 0 
-357 358 359 0 
-358 103 0 
-358 340 0 
-359 340 0 
-359 344 0 
-360 103 0 
-360 344 0 
-361 -362 0 
-362 -363 -368 0 
-362 363 368 0 
-30 188 0 
-30 31 0 
-363 -129 -364 0 
-363 129 364 0 
-364 -365 -367 0 
-364 365 367 0 
-365 -366 0 
-367 353 0 
-367 355 0 
-368 369 372 0 
-369 370 371 0 
-370 116 0 
-370 352 0 
-371 352 0 
-371 356 0 
-372 116 0 
-372 356 0 
-31 175 0 
-31 32 0 
-373 -374 0 
-374 -375 -380 0 
-374 375 380 0 
-375 -142 -376 0 
-375 142 376 0 
-376 -377 -379 0 
-376 377 379 0 
-377 -378 0 
-379 365 0 
-379 367 0 
-380 381 384 0 
-381 382 383 0 
-382 129 0 
-382 364 0 
-32 162 0 
-32 33 0 
-383 364 0 
-383 368 0 
-384 129 0 
-384 368 0 
-385 -386 0 
-386 -387 -392 0 
-386 387 392 0 
-387 -155 -388 0 
-387 155 388 0 
-388 -389 -391 0 
-388 389 391 0 
-389 -390 0 
-391 377 0 
-391 379 0 
-392 393 396 0 
-33 149 0 
-33 34 0 
-393 394 395 0 
-394 142 0 
-394 376 0 
-395 376 0 
-395 380 0 
-396 142 0 
-396 380 0 
-397 -398 0 
-398 -399 -404 0 
-398 399 404 0 
-399 -168 -400 0 
-399 168 400 0 
-400 -401 -403 0 
-400 401 403 0 
-401 -402 0 
-34 136 0 
-34 35 0 
-403 389 0 
-403 391 0 
-404 405 408 0 
-405 406 407 0 
-406 155 0 
-406 388 0 
-407 388 0 
-407 392 0 
-408 155 0 
-408 392 0 
-409 -410 0 
-410 -411 -416 0 
-410 411 416 0 
-411 -181 -412 0 
-411 181 412 0 
-412 -413 -415 0 
-412 413 415 0 
-35 123 0 
-35 36 0 
-413 -414 0 
-415 401 0 
-415 403 0 
-416 417 420 0 
-417 418 419 0 
-418 168 0 
-418 400 0 
-419 400 0 
-419 404 0 
-420 168 0 
-420 404 0 
-421 -422 0 
-422 -423 -428 0 
-422 423 428 0 
-36 110 0 
-36 37 0 
-423 -194 -424 0 
-423 194 424 0 
-424 -425 -427 0 
-424 425 427 0 
-425 -426 0 
-427 413 0 
-427 415 0 
-428 429 432 0 
-429 430 431 0 
-430 181 0 
-430 412 0 
-431 412 0 
-431 416 0 
-432 181 0 
-432 416 0 
-37 97 0 
-37 38 0 
-433 -434 0 
-434 -435 -440 0 
-434 435 440 0 
-435 -207 -436 0 
-435 207 436 0 
-436 -437 -439 0 
-436 437 439 0 
-437 -438 0 
-439 425 0 
-439 427 0 
-440 441 444 0 
-441 442 443 0 
-442 194 0 
-442 424 0 
-38 39 0 
-38 84 0 
-443 424 0 
-443 428 0 
-444 194 0 
-444 428 0 
-445 -446 0 
-446 -447 -452 0 
-446 447 452 0 
-447 -220 -448 0 
-447 220 448 0 
-448 -449 -451 0 
-448 449 451 0 
-449 -450 0 
-451 437 0 
-451 439 0 
-452 453 456 0 
-39 40 0 
-39 71 0 
-453 454 455 0 
-454 207 0 
-454 436 0 
-455 436 0 
-455 440 0 
-456 207 0 
-456 440 0 
-457 -458 0 
-458 -459 -464 0 
-458 459 464 0 
-459 -233 -460 0 
-459 233 460 0 
-460 -461 -463 0 
-460 461 463 0 
-461 -462 0 
-40 41 0 
-40 58 0 
-463 449 0 
-463 451 0 
-464 465 468 0 
-465 466 467 0 
-466 220 0 
-466 448 0 
-467 448 0 
-467 452 0 
-468 220 0 
-468 452 0 
-469 470 0 
-470 -471 0 
-471 472 0 
-472 -4 -254 0 
-472 4 254 0 
-41 42 0 
-41 49 0 
-473 -474 475 0 
-473 474 271 0 
-474 268 0 
-475 -272 476 0 
-475 272 0 
-476 477 0 
-477 254 0 
-478 -474 475 0 
-478 474 479 0 
-479 -272 480 0 
-479 272 482 0 
-480 -481 0 
-480 481 469 0 
-481 261 0 
-482 -481 483 0 
-482 481 0 
-42 -43 0 
-483 -484 515 0 
-483 484 549 0 
-484 485 0 
-484 514 0 
-485 486 0 
-485 513 0 
-486 487 0 
-486 512 0 
-487 488 0 
-487 511 0 
-488 489 0 
-488 510 0 
-489 490 0 
-489 509 0 
-490 491 0 
-490 508 0 
-491 492 0 
-491 507 0 
-492 493 0 
-492 506 0 
-1 -2 0 
-43 44 0 
-493 494 0 
-493 505 0 
-494 495 0 
-494 504 0 
-495 496 0 
-495 503 0 
-496 497 0 
-496 502 0 
-497 498 0 
-497 501 0 
-498 499 0 
-498 500 0 
-499 48 0 
-500 55 0 
-501 64 0 
-502 77 0 
-44 -45 -46 0 
-44 45 46 0 
-503 90 0 
-504 103 0 
-505 116 0 
-506 129 0 
-507 142 0 
-508 155 0 
-509 168 0 
-510 181 0 
-511 194 0 
-512 207 0 
-513 220 0 
-514 233 0 
-515 -516 547 0 
-515 516 0 
-516 517 0 
-516 546 0 
-517 518 0 
-517 545 0 
-518 519 0 
-518 544 0 
-519 520 0 
-519 543 0 
-520 521 0 
-520 542 0 
-521 522 0 
-521 541 0 
-522 523 0 
-522 540 0 
-46 -47 0 
-523 524 0 
-523 539 0 
-524 525 0 
-524 538 0 
-525 526 0 
-525 537 0 
-526 527 0 
-526 536 0 
-527 528 0 
-527 535 0 
-528 529 0 
-528 534 0 
-529 530 0 
-529 533 0 
-530 531 0 
-530 532 0 
-531 -292 0 
-532 -298 0 
-47 -48 0 
-533 -306 0 
-534 -318 0 
-535 -330 0 
-536 -342 0 
-537 -354 0 
-538 -366 0 
-539 -378 0 
-540 -390 0 
-541 -402 0 
-542 -414 0 
-543 -426 0 
-544 -438 0 
-545 -450 0 
-546 -462 0 
-547 548 0 
-548 471 0 
-549 -550 469 0 
-549 550 0 
-550 551 0 
-550 580 0 
-551 552 0 
-551 579 0 
-552 553 0 
-552 578 0 
-49 -50 0 
-553 554 0 
-553 577 0 
-554 555 0 
-554 576 0 
-555 556 0 
-555 575 0 
-556 557 0 
-556 574 0 
-557 558 0 
-557 573 0 
-558 559 0 
-558 572 0 
-559 560 0 
-559 571 0 
-560 561 0 
-560 570 0 
-561 562 0 
-561 569 0 
-562 563 0 
-562 568 0 
-50 -51 -57 0 
-50 51 57 0 
-563 564 0 
-563 567 0 
-564 565 0 
-564 566 0 
-565 288 0 
-566 294 0 
-567 302 0 
-568 314 0 
-569 326 0 
-570 338 0 
-571 350 0 
-572 362 0 
-51 -52 -53 0 
-51 52 53 0 
-573 374 0 
-574 386 0 
-575 398 0 
-576 410 0 
-577 422 0 
-578 434 0 
-579 446 0 
-580 458 0 
-581 -582 583 0 
-581 582 588 0 
-582 23 0 
-583 -27 584 0 
-583 27 0 
-584 -585 586 0 
-584 585 0 
-585 4 0 
-586 -248 587 0 
-586 248 0 
-587 -258 271 0 
-587 258 478 0 
-588 -27 589 0 
-588 27 0 
-589 -241 590 0 
-589 241 0 
-590 -248 591 0 
-590 248 0 
-591 -258 592 0 
-591 258 478 0 
-592 -265 271 0 
-592 265 475 0 
-2 -3 0 
-53 -54 -56 0 
-53 54 56 0 
-593 -582 583 0 
-593 582 594 0 
-594 -27 595 0 
-594 27 602 0 
-595 -596 0 
-595 596 597 0 
-596 13 0 
-597 -241 598 0 
-597 241 0 
-598 -248 599 0 
-598 248 0 
-599 -258 592 0 
-599 258 600 0 
-600 -474 475 0 
-600 474 601 0 
-601 -272 0 
-601 272 483 0 
-602 -596 603 0 
-602 596 0 
-54 -55 0 
-603 -604 635 0 
-603 604 671 0 
-604 605 0 
-604 634 0 
-605 606 0 
-605 633 0 
-606 607 0 
-606 632 0 
-607 608 0 
-607 631 0 
-608 609 0 
-608 630 0 
-609 610 0 
-609 629 0 
-610 611 0 
-610 628 0 
-611 612 0 
-611 627 0 
-612 613 0 
-612 626 0 
-613 614 0 
-613 625 0 
-614 615 0 
-614 624 0 
-615 616 0 
-615 623 0 
-616 617 0 
-616 622 0 
-617 618 0 
-617 621 0 
-618 619 0 
-618 620 0 
-619 45 0 
-620 52 0 
-621 61 0 
-622 74 0 
-56 47 0 
-623 87 0 
-624 100 0 
-625 113 0 
-626 126 0 
-627 139 0 
-628 152 0 
-629 165 0 
-630 178 0 
-631 191 0 
-632 204 0 
-57 45 0 
-57 46 0 
-633 217 0 
-634 230 0 
-635 -636 667 0 
-635 636 0 
-636 637 0 
-636 666 0 
-637 638 0 
-637 665 0 
-638 639 0 
-638 664 0 
-639 640 0 
-639 663 0 
-640 641 0 
-640 662 0 
-641 642 0 
-641 661 0 
-642 643 0 
-642 660 0 
-58 -59 0 
-643 644 0 
-643 659 0 
-644 645 0 
-644 658 0 
-645 646 0 
-645 657 0 
-646 647 0 
-646 656 0 
-647 648 0 
-647 655 0 
-648 649 0 
-648 654 0 
-649 650 0 
-649 653 0 
-650 651 0 
-650 652 0 
-651 -48 0 
-652 -55 0 
-59 -60 -66 0 
-59 60 66 0 
-653 -64 0 
-654 -77 0 
-655 -90 0 
-656 -103 0 
-657 -116 0 
-658 -129 0 
-659 -142 0 
-660 -155 0 
-661 -168 0 
-662 -181 0 
-60 -61 -62 0 
-60 61 62 0 
-663 -194 0 
-664 -207 0 
-665 -220 0 
-666 -233 0 
-667 -668 669 0 
-667 668 0 
-668 242 0 
-669 -248 670 0 
-669 248 0 
-670 -258 592 0 
-670 258 473 0 
-671 -672 703 0 
-671 672 0 
-672 673 0 
-672 702 0 
-673 674 0 
-673 701 0 
-674 675 0 
-674 700 0 
-675 676 0 
-675 699 0 
-676 677 0 
-676 698 0 
-677 678 0 
-677 697 0 
-678 679 0 
-678 696 0 
-679 680 0 
-679 695 0 
-680 681 0 
-680 694 0 
-681 682 0 
-681 693 0 
-682 683 0 
-682 692 0 
-62 -63 -65 0 
-62 63 65 0 
-683 684 0 
-683 691 0 
-684 685 0 
-684 690 0 
-685 686 0 
-685 689 0 
-686 687 0 
-686 688 0 
-687 43 0 
-688 50 0 
-689 59 0 
-690 72 0 
-691 85 0 
-692 98 0 
-63 -64 0 
-693 111 0 
-694 124 0 
-695 137 0 
-696 150 0 
-697 163 0 
-698 176 0 
-699 189 0 
-700 202 0 
-701 215 0 
-702 228 0 
-703 -241 669 0 
-703 241 0 
-65 54 0 
-65 56 0 
-66 67 70 0 
-67 68 69 0 
-68 52 0 
-68 53 0 
-69 53 0 
-69 57 0 
-70 52 0 
-70 57 0 
-71 -72 0 
-72 -73 -79 0 
-72 73 79 0 
-73 -74 -75 0 
-73 74 75 0 
-75 -76 -78 0 
-75 76 78 0 
-76 -77 0 
-78 63 0 
-78 65 0 
-79 80 83 0 
-80 81 82 0 
-81 61 0 
-81 62 0 
-82 62 0 
-82 66 0 
-4 -5 0 
-83 61 0 
-83 66 0 
-84 -85 0 
-85 -86 -92 0 
-85 86 92 0 
-86 -87 -88 0 
-86 87 88 0 
-88 -89 -91 0 
-88 89 91 0 
-89 -90 0 
-91 76 0 
-91 78 0 
-92 93 96 0 
5 6 0 
93 -94 0 
93 -95 0 
94 -74 -75 0 
95 -75 -79 0 
96 -74 -79 0 
97 98 0 
98 -99 105 0 
98 -105 99 0 
99 -100 101 0 
99 -101 100 0 
101 -102 104 0 
101 -104 102 0 
102 103 0 
104 -89 -91 0 
105 -106 0 
105 -109 0 
106 -107 0 
106 -108 0 
107 -87 -88 0 
108 -88 -92 0 
109 -87 -92 0 
110 111 0 
111 -112 118 0 
111 -118 112 0 
112 -113 114 0 
112 -114 113 0 
114 -115 117 0 
114 -117 115 0 
115 116 0 
117 -102 -104 0 
118 -119 0 
118 -122 0 
119 -120 0 
119 -121 0 
120 -100 -101 0 
121 -101 -105 0 
122 -100 -105 0 
123 124 0 
124 -125 131 0 
124 -131 125 0 
125 -126 127 0 
125 -127 126 0 
127 -128 130 0 
127 -130 128 0 
128 129 0 
130 -115 -117 0 
131 -132 0 
131 -135 0 
132 -133 0 
132 -134 0 
7 8 0 
133 -113 -114 0 
134 -114 -118 0 
135 -113 -118 0 
136 137 0 
137 -138 144 0 
137 -144 138 0 
138 -139 140 0 
138 -140 139 0 
140 -141 143 0 
140 -143 141 0 
141 142 0 
8 -9 0 
143 -128 -130 0 
144 -145 0 
144 -148 0 
145 -146 0 
145 -147 0 
146 -126 -127 0 
147 -127 -131 0 
148 -126 -131 0 
149 150 0 
150 -151 157 0 
150 -157 151 0 
151 -152 153 0 
151 -153 152 0 
9 -10 13 0 
9 -13 10 0 
153 -154 156 0 
153 -156 154 0 
154 155 0 
156 -141 -143 0 
157 -158 0 
157 -161 0 
158 -159 0 
158 -160 0 
159 -139 -140 0 
160 -140 -144 0 
161 -139 -144 0 
162 163 0 
10 11 0 
163 -164 170 0 
163 -170 164 0 
164 -165 166 0 
164 -166 165 0 
166 -167 169 0 
166 -169 167 0 
167 168 0 
169 -154 -156 0 
170 -171 0 
170 -174 0 
171 -172 0 
171 -173 0 
172 -152 -153 0 
11 12 0 
173 -153 -157 0 
174 -152 -157 0 
175 176 0 
176 -177 183 0 
176 -183 177 0 
177 -178 179 0 
177 -179 178 0 
179 -180 182 0 
179 -182 180 0 
180 181 0 
182 -167 -169 0 
183 -184 0 
183 -187 0 
184 -185 0 
184 -186 0 
185 -165 -166 0 
186 -166 -170 0 
187 -165 -170 0 
188 189 0 
189 -190 196 0 
189 -196 190 0 
190 -191 192 0 
190 -192 191 0 
192 -193 195 0 
192 -195 193 0 
13 14 0 
193 194 0 
195 -180 -182 0 
196 -197 0 
196 -200 0 
197 -198 0 
197 -199 0 
198 -178 -179 0 
199 -179 -183 0 
200 -178 -183 0 
201 202 0 
202 -203 209 0 
202 -209 203 0 
14 15 0 
203 -204 205 0 
203 -205 204 0 
205 -206 208 0 
205 -208 206 0 
206 207 0 
208 -193 -195 0 
209 -210 0 
209 -213 0 
210 -211 0 
210 -212 0 
211 -191 -192 0 
212 -192 -196 0 
213 -191 -196 0 
214 215 0 
215 -216 222 0 
215 -222 216 0 
216 -217 218 0 
216 -218 217 0 
218 -219 221 0 
218 -221 219 0 
219 220 0 
221 -206 -208 0 
222 -223 0 
222 -226 0 
16 -17 -26 0 
16 -26 -581 0 
16 17 -581 0 
223 -224 0 
223 -225 0 
224 -204 -205 0 
225 -205 -209 0 
226 -204 -209 0 
227 228 0 
228 -229 235 0 
228 -235 229 0 
229 -230 231 0 
229 -231 230 0 
231 -232 234 0 
231 -234 232 0 
232 233 0 
17 18 0 
234 -219 -221 0 
235 -236 0 
235 -239 0 
236 -237 0 
236 -238 0 
237 -217 -218 0 
238 -218 -222 0 
239 -217 -222 0 
240 -241 -247 0 
241 242 0 
242 -243 0 
18 -19 0 
243 -244 4 0 
243 -4 244 0 
244 245 0 
245 246 0 
247 -248 -257 0 
248 249 0 
249 -250 0 
250 -251 254 0 
250 -254 251 0 
251 252 0 
252 253 0 
19 -20 23 0 
19 -23 20 0 
254 255 0 
255 256 0 
257 -258 -264 0 
257 -264 -478 0 
257 258 -478 0 
258 259 0 
259 -260 0 
260 -13 261 0 
260 -261 13 0 
261 262 0 
262 263 0 
20 21 0 
264 -265 -271 0 
264 -271 -473 0 
264 265 -473 0 
265 266 0 
266 -267 0 
267 -268 23 0 
267 -23 268 0 
268 269 0 
269 270 0 
271 -272 -469 0 
272 -273 -457 0 
21 22 0 
273 -274 -445 0 
274 -275 -433 0 
275 -276 -421 0 
276 -277 -409 0 
277 -278 -397 0 
278 -279 -385 0 
279 -280 -373 0 
280 -281 -361 0 
281 -282 -349 0 
282 -283 -337 0 
283 -284 -325 0 
284 -285 -313 0 
285 -286 -301 0 
286 -287 -293 0 
287 288 0 
288 -289 0 
289 -290 48 0 
289 -48 290 0 
290 291 0 
291 292 0 
23 24 0 
293 294 0 
294 -295 300 0 
294 -300 295 0 
295 -296 55 0 
295 -55 296 0 
296 -297 299 0 
296 -299 297 0 
297 298 0 
299 -291 0 
300 -48 -290 0 
301 302 0 
302 -303 308 0 
302 -308 303 0 
24 25 0 
303 -304 64 0 
303 -64 304 0 
304 -305 307 0 
304 -307 305 0 
305 306 0 
307 -297 -299 0 
308 -309 0 
308 -312 0 
309 -310 0 
309 -311 0 
310 -55 -296 0 
311 -296 -300 0 
312 -55 -300 0 
313 314 0 
314 -315 320 0 
314 -320 315 0 
315 -316 77 0 
315 -77 316 0 
316 -317 319 0 
316 -319 317 0 
317 318 0 
319 -305 -307 0 
320 -321 0 
320 -324 0 
321 -322 0 
321 -323 0 
322 -64 -304 0 
26 -27 -240 0 
323 -304 -308 0 
324 -64 -308 0 
325 326 0 
326 -327 332 0 
326 -332 327 0 
327 -328 90 0 
327 -90 328 0 
328 -329 331 0 
328 -331 329 0 
329 330 0 
331 -317 -319 0 
332 -333 0 
332 -336 0 
27 -28 -227 0 
333 -334 0 
333 -335 0 
334 -77 -316 0 
335 -316 -320 0 
336 -77 -320 0 
337 338 0 
338 -339 344 0 
338 -344 339 0 
339 -103 340 0 
339 -340 103 0 
340 -341 343 0 
340 -343 341 0 
341 342 0 
28 -29 -214 0 
343 -329 -331 0 
344 -345 0 
344 -348 0 
345 -346 0 
345 -347 0 
346 -90 -328 0 
347 -328 -332 0 
348 -90 -332 0 
349 350 0 
350 -351 356 0 
350 -356 351 0 
351 -116 352 0 
351 -352 116 0 
352 -353 355 0 
352 -355 353 0 
29 -30 -201 0 
353 354 0 
355 -341 -343 0 
356 -357 0 
356 -360 0 
357 -358 0 
357 -359 0 
358 -103 -340 0 
359 -340 -344 0 
360 -103 -344 0 
361 362 0 
362 -363 368 0 
362 -368 363 0 
30 -31 -188 0 
363 -129 364 0 
363 -364 129 0 
364 -365 367 0 
364 -367 365 0 
365 366 0 
367 -353 -355 0 
368 -369 0 
368 -372 0 
369 -370 0 
369 -371 0 
370 -116 -352 0 
371 -352 -356 0 
372 -116 -356 0 
31 -32 -175 0 
373 374 0 
374 -375 380 0 
374 -380 375 0 
375 -142 376 0 
375 -376 142 0 
376 -377 379 0 
376 -379 377 0 
377 378 0 
379 -365 -367 0 
380 -381 0 
380 -384 0 
381 -382 0 
381 -383 0 
382 -129 -364 0 
32 -33 -162 0 
383 -364 -368 0 
384 -129 -368 0 
385 386 0 
386 -387 392 0 
386 -392 387 0 
387 -155 388 0 
387 -388 155 0 
388 -389 391 0 
388 -391 389 0 
389 390 0 
391 -377 -379 0 
392 -393 0 
392 -396 0 
-1 4 0 
-4 1 0 
33 -34 -149 0 
393 -394 0 
393 -395 0 
394 -142 -376 0 
395 -376 -380 0 
396 -142 -380 0 
397 398 0 
398 -399 404 0 
398 -404 399 0 
399 -168 400 0 
399 -400 168 0 
400 -401 403 0 
400 -403 401 0 
401 402 0 
34 -35 -136 0 
403 -389 -391 0 
404 -405 0 
404 -408 0 
405 -406 0 
405 -407 0 
406 -155 -388 0 
407 -388 -392 0 
408 -155 -392 0 
409 410 0 
410 -411 416 0 
410 -416 411 0 
411 -181 412 0 
411 -412 181 0 
412 -413 415 0 
412 -415 413 0 
35 -36 -123 0 
413 414 0 
415 -401 -403 0 
416 -417 0 
416 -420 0 
417 -418 0 
417 -419 0 
418 -168 -400 0 
419 -400 -404 0 
420 -168 -404 0 
421 422 0 
422 -423 428 0 
422 -428 423 0 
36 -37 -110 0 
423 -194 424 0 
423 -424 194 0 
424 -425 427 0 
424 -427 425 0 
425 426 0 
427 -413 -415 0 
428 -429 0 
428 -432 0 
429 -430 0 
429 -431 0 
430 -181 -412 0 
431 -412 -416 0 
432 -181 -416 0 
37 -38 -97 0 
433 434 0 
434 -435 440 0 
434 -440 435 0 
435 -207 436 0 
435 -436 207 0 
436 -437 439 0 
436 -439 437 0 
437 438 0 
439 -425 -427 0 
440 -441 0 
440 -444 0 
441 -442 0 
441 -443 0 
442 -194 -424 0 
38 -39 -84 0 
443 -424 -428 0 
444 -194 -428 0 
445 446 0 
446 -447 452 0 
446 -452 447 0 
447 -220 448 0 
447 -448 220 0 
448 -449 451 0 
448 -451 449 0 
449 450 0 
451 -437 -439 0 
452 -453 0 
452 -456 0 
39 -40 -71 0 
453 -454 0 
453 -455 0 
454 -207 -436 0 
455 -436 -440 0 
456 -207 -440 0 
457 458 0 
458 -459 464 0 
458 -464 459 0 
459 -233 460 0 
459 -460 233 0 
460 -461 463 0 
460 -463 461 0 
461 462 0 
40 -41 -58 0 
463 -449 -451 0 
464 -465 0 
464 -468 0 
465 -466 0 
465 -467 0 
466 -220 -448 0 
467 -448 -452 0 
468 -220 -452 0 
469 -470 0 
470 471 0 
471 -472 0 
472 -254 4 0 
472 -4 254 0 
41 -42 -49 0 
473 -474 -475 0 
473 -475 -271 0 
473 474 -271 0 
474 -268 0 
475 -272 -476 0 
476 -477 0 
477 -254 0 
478 -474 -475 0 
478 -475 -479 0 
478 474 -479 0 
479 -272 -480 0 
479 -480 -482 0 
479 272 -482 0 
480 481 -469 0 
481 -261 0 
482 -481 -483 0 
42 43 0 
483 -484 -515 0 
483 -515 -549 0 
483 484 -549 0 
484 -485 -514 0 
485 -486 -513 0 
486 -487 -512 0 
487 -488 -511 0 
488 -489 -510 0 
489 -490 -509 0 
490 -491 -508 0 
491 -492 -507 0 
492 -493 -506 0 
1 2 0 
43 -44 0 
493 -494 -505 0 
494 -495 -504 0 
495 -496 -503 0 
496 -497 -502 0 
497 -498 -501 0 
498 -499 -500 0 
499 -48 0 
500 -55 0 
501 -64 0 
502 -77 0 
44 -45 46 0 
44 -46 45 0 
503 -90 0 
504 -103 0 
505 -116 0 
506 -129 0 
507 -142 0 
508 -155 0 
509 -168 0 
510 -181 0 
511 -194 0 
512 -207 0 
513 -220 0 
514 -233 0 
515 -516 -547 0 
516 -517 -546 0 
517 -518 -545 0 
518 -519 -544 0 
519 -520 -543 0 
520 -521 -542 0 
521 -522 -541 0 
522 -523 -540 0 
46 47 0 
523 -524 -539 0 
524 -525 -538 0 
525 -526 -537 0 
526 -527 -536 0 
527 -528 -535 0 
528 -529 -534 0 
529 -530 -533 0 
530 -531 -532 0 
531 292 0 
532 298 0 
47 48 0 
533 306 0 
534 318 0 
535 330 0 
536 342 0 
537 354 0 
538 366 0 
539 378 0 
540 390 0 
541 402 0 
542 414 0 
543 426 0 
544 438 0 
545 450 0 
546 462 0 
547 -548 0 
548 -471 0 
549 -550 -469 0 
550 -551 -580 0 
551 -552 -579 0 
552 -553 -578 0 
49 50 0 
553 -554 -577 0 
554 -555 -576 0 
555 -556 -575 0 
556 -557 -574 0 
557 -558 -573 0 
558 -559 -572 0 
559 -560 -571 0 
560 -561 -570 0 
561 -562 -569 0 
562 -563 -568 0 
50 -51 57 0 
50 -57 51 0 
563 -564 -567 0 
564 -565 -566 0 
565 -288 0 
566 -294 0 
567 -302 0 
568 -314 0 
569 -326 0 
570 -338 0 
571 -350 0 
572 -362 0 
51 -52 53 0 
51 -53 52 0 
573 -374 0 
574 -386 0 
575 -398 0 
576 -410 0 
577 -422 0 
578 -434 0 
579 -446 0 
580 -458 0 
581 -582 -583 0 
581 -583 -588 0 
581 582 -588 0 
582 -23 0 
583 -27 -584 0 
584 -585 -586 0 
585 -4 0 
586 -248 -587 0 
587 -258 -271 0 
587 -271 -478 0 
587 258 -478 0 
588 -27 -589 0 
589 -241 -590 0 
590 -248 -591 0 
591 -258 -592 0 
591 -592 -478 0 
591 258 -478 0 
592 -265 -271 0 
592 -271 -475 0 
592 265 -475 0 
2 3 0 
53 -54 56 0 
53 -56 54 0 
593 -582 -583 0 
593 -583 -594 0 
593 582 -594 0 
594 -27 -595 0 
594 -595 -602 0 
594 27 -602 0 
595 596 -597 0 
596 -13 0 
597 -241 -598 0 
598 -248 -599 0 
599 -258 -592 0 
599 -592 -600 0 
599 258 -600 0 
600 -474 -475 0 
600 -475 -601 0 
600 474 -601 0 
601 272 -483 0 
602 -596 -603 0 
54 55 0 
603 -604 -635 0 
603 -635 -671 0 
603 604 -671 0 
604 -605 -634 0 
605 -606 -633 0 
606 -607 -632 0 
607 -608 -631 0 
608 -609 -630 0 
609 -610 -629 0 
610 -611 -628 0 
611 -612 -627 0 
612 -613 -626 0 
613 -614 -625 0 
614 -615 -624 0 
615 -616 -623 0 
616 -617 -622 0 
617 -618 -621 0 
618 -619 -620 0 
619 -45 0 
620 -52 0 
621 -61 0 
622 -74 0 
56 -47 0 
623 -87 0 
624 -100 0 
625 -113 0 
626 -126 0 
627 -139 0 
628 -152 0 
629 -165 0 
630 -178 0 
631 -191 0 
632 -204 0 
57 -45 -46 0 
633 -217 0 
634 -230 0 
635 -636 -667 0 
636 -637 -666 0 
637 -638 -665 0 
638 -639 -664 0 
639 -640 -663 0 
640 -641 -662 0 
641 -642 -661 0 
642 -643 -660 0 
58 59 0 
643 -644 -659 0 
644 -645 -658 0 
645 -646 -657 0 
646 -647 -656 0 
647 -648 -655 0 
648 -649 -654 0 
649 -650 -653 0 
650 -651 -652 0 
651 48 0 
652 55 0 
59 -60 66 0 
59 -66 60 0 
653 64 0 
654 77 0 
655 90 0 
656 103 0 
657 116 0 
658 129 0 
659 142 0 
660 155 0 
661 168 0 
662 181 0 
60 -61 62 0 
60 -62 61 0 
663 194 0 
664 207 0 
665 220 0 
666 233 0 
667 -668 -669 0 
668 -242 0 
669 -248 -670 0 
670 -258 -592 0 
670 -592 -473 0 
670 258 -473 0 
671 -672 -703 0 
672 -673 -702 0 
673 -674 -701 0 
674 -675 -700 0 
675 -676 -699 0 
676 -677 -698 0 
677 -678 -697 0 
678 -679 -696 0 
679 -680 -695 0 
680 -681 -694 0 
681 -682 -693 0 
682 -683 -692 0 
62 -63 65 0 
62 -65 63 0 
683 -684 -691 0 
684 -685 -690 0 
685 -686 -689 0 
686 -687 -688 0 
687 -43 0 
688 -50 0 
689 -59 0 
690 -72 0 
691 -85 0 
692 -98 0 
63 64 0 
693 -111 0 
694 -124 0 
695 -137 0 
696 -150 0 
697 -163 0 
698 -176 0 
699 -189 0 
700 -202 0 
701 -215 0 
702 -228 0 
703 -241 -669 0 
65 -54 -56 0 
66 -67 0 
66 -70 0 
67 -68 0 
67 -69 0 
68 -52 -53 0 
69 -53 -57 0 
70 -52 -57 0 
71 72 0 
72 -73 79 0 
72 -79 73 0 
73 -74 75 0 
73 -75 74 0 
75 -76 78 0 
75 -78 76 0 
76 77 0 
78 -63 -65 0 
79 -80 0 
79 -83 0 
80 -81 0 
80 -82 0 
81 -61 -62 0 
82 -62 -66 0 
4 5 0 
83 -61 -66 0 
84 85 0 
85 -86 92 0 
85 -92 86 0 
86 -87 88 0 
86 -88 87 0 
88 -89 91 0 
88 -91 89 0 
89 90 0 
91 -76 -78 0 
92 -93 0 
92 -96 0 
